(set-option :produce-models true)
(set-logic QF_AUFBV)
(declare-fun A ((_ BitVec 4)) Bool)
(declare-fun B () (_ BitVec 4))
(assert (= (A #b0000) true))
(assert (= (A #b0001) true))
(assert (= (A #b0010) true))
(assert (= (A #b0011) true))
(assert (= (A #b0100) true))
(assert (= (A #b0101) true))
(assert (= (A #b0110) true))
(assert (= (A #b0111) true))
(assert (= (A #b1000) true))
(assert (= (A #b1001) true))
(assert (= (A #b1010) true))
(assert (= (A #b1011) true))
; (assert (= (A #b1100) true))
(assert (= (A #b1101) true))
(assert (= (A #b1110) true))
(assert (= (A #b1111) true))
(assert (= (A B) false))
(check-sat)
(get-value ((A B) B))
